Traveling Salesman Problem/TSP_generados/Aleatorio1621103360_11.tsp
NAME: Aleatorio1621103360_11.tsp
COMMENT: Randomly generated scenario
TYPE: TSP
DIMENSION: 11
EDGE_WEIGHT_TYPE: ATT
NODE_COORD_SECTION
1 15.01 46.27
2 17.13 33.62
3 27.47 5.75
4 43.67 40.45
5 6.12 22.49
6 15.23 44.69
7 19.87 30.55
8 6.26 3.9
9 48.79 47.18
10 42.19 10.13
11 46.06 25.82
