Traveling Salesman Problem/TSP_generados/Aleatorio1621103360_11.opt.tour
NAME: Aleatorio1621103360_11.opt.tour
COMMENT: Optimal solution for Aleatorio1621103360_11 (161.35171811418775)
TYPE: TOUR
DIMENSION: 11
TOUR_SECTION
1 9 4 11 10 3 8 5 7 2 6
-1
EOF
